75 300 5 61 76 1 97 59 1 46 88 90 31 29 84 18 2 60 99 14 97 77 42 30 37 41 21 37 16 75 94 18 1 50 31 28 2 27 87 3 72 26 92 2 54 75 71 55 86 21 21 82 98 62 64 34 54 84 22 69 10 67 87 63 17 17 42 18 95 80 20 19 5 63 20 59 37 